language Essence 1.3

letting Golfers be new type of size g * s

letting sched be
        mset(partition({1, 2}, {3, 4}),
             partition({1, 2}, {3, 4}),
             partition({1, 2}, {3, 4}))
